p tw 42 45
1 2
2 13
3 4
4 5
5 6
6 7
7 8
8 9
9 10
10 11
10 15
11 12
12 14
13 24
14 40
15 16
16 17
17 18
17 22
18 19
19 20
20 21
21 36
22 23
23 25
23 29
24 35
25 26
26 27
27 28
28 36
29 30
30 31
31 32
32 33
33 34
34 36
35 38
36 37
38 39
39 40
40 41
41 42
42 3
42 15
